(set-info :source |printed by MathSAT|)
(declare-fun |!{$(in_main#0)<N>}| () Int)
(declare-fun |!{$(in_main#0)<N>}.next| () Int)
(declare-fun |!{$(in_main#0)<&array>}| () Int)
(declare-fun |!{$(in_main#0)<&array>}.next| () Int)
(declare-fun |!{$(in_main#0)<k>}| () Int)
(declare-fun |!{$(in_main#0)<k>}.next| () Int)
(declare-fun |!{$(in_main#0)<k#1>}| () Int)
(declare-fun |!{$(in_main#0)<k#1>}.next| () Int)
(declare-fun |!{%memaddr}| () Int)
(declare-fun |!{%memaddr}.next| () Int)
(declare-fun |!{%mem.0}| () (Array Int Int))
(declare-fun |!{%mem.0}.next| () (Array Int Int))
(declare-fun |!{$(in_main#0)<$(in___VERIFIER_nondet_int#1)<h#<__VERIFIER_nondet_int.return>>>}| () Int)
(declare-fun |!{$(in_main#0)<$(in___VERIFIER_nondet_int#3)<h#<__VERIFIER_nondet_int.return>>>}| () Int)
(declare-fun !pc () Int)
(declare-fun !pc.next () Int)
(declare-fun |%{$(in_main#0)<k#1>}#1| () Int)
(declare-fun |%{%mem.0}#3| () (Array Int Int))
(define-fun .def_42 () Int (! !pc :next !pc.next))
(define-fun .def_45 () Bool (! (= .def_42 2) :init true))
(define-fun .def_187 () Bool (= .def_42 47))
(define-fun .def_123 () Bool (= !pc.next 100))
(define-fun .def_190 () Bool (and .def_123 .def_187))
(define-fun .def_183 () Bool (= |!{%mem.0}.next| |%{%mem.0}#3|))
(define-fun .def_180 () Bool (= |!{$(in_main#0)<k#1>}.next| 0))
(define-fun .def_10 () Int (! |!{$(in_main#0)<&array>}| :next |!{$(in_main#0)<&array>}.next|))
(define-fun .def_90 () Bool (= .def_10 |!{$(in_main#0)<&array>}.next|))
(define-fun .def_8 () Int (! |!{$(in_main#0)<N>}| :next |!{$(in_main#0)<N>}.next|))
(define-fun .def_88 () Bool (= .def_8 |!{$(in_main#0)<N>}.next|))
(define-fun .def_100 () Bool (and .def_88 .def_90))
(define-fun .def_12 () Int (! |!{$(in_main#0)<k>}| :next |!{$(in_main#0)<k>}.next|))
(define-fun .def_92 () Bool (= .def_12 |!{$(in_main#0)<k>}.next|))
(define-fun .def_101 () Bool (and .def_92 .def_100))
(define-fun .def_181 () Bool (and .def_101 .def_180))
(define-fun .def_16 () Int (! |!{%memaddr}| :next |!{%memaddr}.next|))
(define-fun .def_96 () Bool (= .def_16 |!{%memaddr}.next|))
(define-fun .def_182 () Bool (and .def_96 .def_181))
(define-fun .def_184 () Bool (and .def_182 .def_183))
(define-fun .def_18 () (Array Int Int) (! |!{%mem.0}| :next |!{%mem.0}.next|))
(define-fun .def_167 () Bool (= .def_18 |%{%mem.0}#3|))
(define-fun .def_139 () Bool (<= .def_8 0))
(define-fun .def_168 () Bool (and .def_139 .def_167))
(define-fun .def_143 () Int (+ .def_8 .def_10))
(define-fun .def_151 () Int (+ .def_143 (- 2)))
(define-fun .def_144 () Int (+ .def_143 (- 1)))
(define-fun .def_145 () (Array Int Int) (store .def_18 .def_144 0))
(define-fun .def_152 () (Array Int Int) (store .def_145 .def_151 0))
(define-fun .def_160 () Bool (= .def_152 |%{%mem.0}#3|))
(define-fun .def_146 () Bool (<= .def_8 1))
(define-fun .def_147 () Bool (not .def_146))
(define-fun .def_162 () Bool (and .def_147 .def_160))
(define-fun .def_159 () Bool (= .def_145 |%{%mem.0}#3|))
(define-fun .def_161 () Bool (and .def_146 .def_159))
(define-fun .def_163 () Bool (or .def_161 .def_162))
(define-fun .def_140 () Bool (not .def_139))
(define-fun .def_164 () Bool (and .def_140 .def_163))
(define-fun .def_169 () Bool (or .def_164 .def_168))
(define-fun .def_185 () Bool (and .def_169 .def_184))
(define-fun .def_134 () Bool (<= .def_8 .def_12))
(define-fun .def_186 () Bool (and .def_134 .def_185))
(define-fun .def_191 () Bool (and .def_186 .def_190))
(define-fun .def_74 () Bool (= !pc.next 47))
(define-fun .def_188 () Bool (and .def_74 .def_187))
(define-fun .def_136 () Int (+ .def_10 .def_12))
(define-fun .def_137 () (Array Int Int) (store .def_18 .def_136 |!{$(in_main#0)<$(in___VERIFIER_nondet_int#3)<h#<__VERIFIER_nondet_int.return>>>}|))
(define-fun .def_177 () Bool (= |!{%mem.0}.next| .def_137))
(define-fun .def_171 () Int (* (- 1) |!{$(in_main#0)<k>}.next|))
(define-fun .def_172 () Int (+ .def_12 .def_171))
(define-fun .def_173 () Bool (= .def_172 (- 1)))
(define-fun .def_174 () Bool (and .def_100 .def_173))
(define-fun .def_14 () Int (! |!{$(in_main#0)<k#1>}| :next |!{$(in_main#0)<k#1>}.next|))
(define-fun .def_94 () Bool (= .def_14 |!{$(in_main#0)<k#1>}.next|))
(define-fun .def_175 () Bool (and .def_94 .def_174))
(define-fun .def_176 () Bool (and .def_96 .def_175))
(define-fun .def_178 () Bool (and .def_176 .def_177))
(define-fun .def_135 () Bool (not .def_134))
(define-fun .def_179 () Bool (and .def_135 .def_178))
(define-fun .def_189 () Bool (and .def_179 .def_188))
(define-fun .def_192 () Bool (or .def_189 .def_191))
(define-fun .def_127 () Bool (= !pc.next 0))
(define-fun .def_118 () Bool (= .def_42 100))
(define-fun .def_128 () Bool (and .def_118 .def_127))
(define-fun .def_77 () Bool (<= .def_8 .def_14))
(define-fun .def_111 () Bool (and .def_77 .def_88))
(define-fun .def_112 () Bool (and .def_90 .def_111))
(define-fun .def_113 () Bool (and .def_92 .def_112))
(define-fun .def_114 () Bool (and .def_94 .def_113))
(define-fun .def_115 () Bool (and .def_96 .def_114))
(define-fun .def_70 () Bool (= .def_18 |!{%mem.0}.next|))
(define-fun .def_116 () Bool (and .def_70 .def_115))
(define-fun .def_129 () Bool (and .def_116 .def_128))
(define-fun .def_124 () Bool (and .def_118 .def_123))
(define-fun .def_103 () Int (* (- 1) |!{$(in_main#0)<k#1>}.next|))
(define-fun .def_104 () Int (+ .def_14 .def_103))
(define-fun .def_105 () Bool (= .def_104 (- 1)))
(define-fun .def_106 () Bool (and .def_101 .def_105))
(define-fun .def_107 () Bool (and .def_96 .def_106))
(define-fun .def_108 () Bool (and .def_70 .def_107))
(define-fun .def_79 () Int (+ .def_10 .def_14))
(define-fun .def_80 () Int (select .def_18 .def_79))
(define-fun .def_81 () Bool (= .def_80 0))
(define-fun .def_82 () Int (ite .def_81 1 0))
(define-fun .def_83 () Bool (= .def_82 0))
(define-fun .def_84 () Bool (not .def_83))
(define-fun .def_109 () Bool (and .def_84 .def_108))
(define-fun .def_78 () Bool (not .def_77))
(define-fun .def_110 () Bool (and .def_78 .def_109))
(define-fun .def_125 () Bool (and .def_110 .def_124))
(define-fun .def_120 () Bool (= !pc.next 120))
(define-fun .def_121 () Bool (and .def_118 .def_120))
(define-fun .def_89 () Bool (and .def_83 .def_88))
(define-fun .def_91 () Bool (and .def_89 .def_90))
(define-fun .def_93 () Bool (and .def_91 .def_92))
(define-fun .def_95 () Bool (and .def_93 .def_94))
(define-fun .def_97 () Bool (and .def_95 .def_96))
(define-fun .def_98 () Bool (and .def_70 .def_97))
(define-fun .def_99 () Bool (and .def_78 .def_98))
(define-fun .def_122 () Bool (and .def_99 .def_121))
(define-fun .def_126 () Bool (or .def_122 .def_125))
(define-fun .def_130 () Bool (or .def_126 .def_129))
(define-fun .def_75 () Bool (and .def_45 .def_74))
(define-fun .def_68 () Bool (= |!{%memaddr}.next| 2))
(define-fun .def_66 () Bool (= |!{$(in_main#0)<k#1>}.next| |%{$(in_main#0)<k#1>}#1|))
(define-fun .def_64 () Bool (= |!{$(in_main#0)<k>}.next| 0))
(define-fun .def_62 () Bool (= |!{$(in_main#0)<&array>}.next| 1))
(define-fun .def_61 () Bool (= |!{$(in_main#0)<N>}.next| |!{$(in_main#0)<$(in___VERIFIER_nondet_int#1)<h#<__VERIFIER_nondet_int.return>>>}|))
(define-fun .def_63 () Bool (and .def_61 .def_62))
(define-fun .def_65 () Bool (and .def_63 .def_64))
(define-fun .def_67 () Bool (and .def_65 .def_66))
(define-fun .def_69 () Bool (and .def_67 .def_68))
(define-fun .def_71 () Bool (and .def_69 .def_70))
(define-fun .def_56 () Bool (<= |!{$(in_main#0)<$(in___VERIFIER_nondet_int#1)<h#<__VERIFIER_nondet_int.return>>>}| 0))
(define-fun .def_57 () Bool (not .def_56))
(define-fun .def_58 () Int (ite .def_57 1 0))
(define-fun .def_59 () Bool (= .def_58 0))
(define-fun .def_60 () Bool (not .def_59))
(define-fun .def_72 () Bool (and .def_60 .def_71))
(define-fun .def_76 () Bool (and .def_72 .def_75))
(define-fun .def_131 () Bool (or .def_76 .def_130))
(define-fun .def_193 () Bool (! (or .def_131 .def_192) :trans true))
(define-fun .def_132 () Bool (= .def_42 120))
(define-fun .def_194 () Bool (! (not .def_132) :invar-property 0 :invar-property-name ||))
(assert true)
